NAME: ACTUAL_TOURS/amz0450
TYPE: TOUR
COMMENT: RouteID_2f1c9941-406d-414b-b8be-56a2ff421e54
DIMENSION: 128
TOUR_SECTION
119
2
100
87
43
8
110
23
34
42
56
125
5
45
81
111
57
74
105
64
54
22
107
24
15
36
44
73
117
51
39
78
101
10
70
7
103
69
26
30
122
89
82
77
92
83
109
128
84
13
52
123
86
31
14
41
40
59
37
48
68
25
46
27
75
80
50
126
95
71
60
47
38
12
63
72
98
102
28
65
115
16
32
79
85
124
114
62
11
58
99
29
21
118
120
112
4
116
9
6
49
121
66
88
94
17
1
127
35
106
53
55
3
61
96
113
93
76
108
18
97
67
20
19
90
104
91
33
-1
EOF
